0 54 
1 56 
2 56 
3 52 
4 52 
5 54 
6 53 
7 50 
8 48 
9 50 
10 49 
11 45 
12 46 
13 45 
14 42 
15 41 
16 40 
17 41 
18 39 
19 39 
20 41 
21 40 
22 37 
23 34 
24 28 
25 29 
26 30 
27 30 
28 29 
29 27 
30 27 
31 25 
32 21 
33 20 
34 19 
35 19 
36 20 
37 18 
38 17 
39 17 
40 15 
41 15 
42 13 
43 11 
44 13 
45 9 
46 10 
47 10 
48 10 
49 11 
50 9 
51 7 
52 6 
53 4 
54 2 
55 2 
56 1 
57 0 
58 0 

